2 13 17 12 7 10 15 16 1 15 7 18 
19 4 4 10 7 15 3 7 17 4 16 15 
10 3 13 5 19 8 13 4 5 15 19 15 
1 19 20 9 4 20 16 5 19 8 6 6 
19 9 10 20 5 4 2 3 16 18 16 7 
5 2 12 10 15 5 8 18 18 1 10 20 
12 2 19 2 18 15 7 6 9 13 4 17 
10 9 1 7 10 11 5 7 16 2 6 20 
6 6 1 6 2 13 4 13 16 16 18 19 
10 17 5 4 16 10 19 19 12 20 13 5 
16 9 10 6 5 12 4 12 14 7 14 3 
17 17 11 18 20 15 4 13 12 5 18 6 
